c is-sat
p cnf 12 80
-9 12 6 0
4 12 -3 0
-9 -6 -8 0
-4 -9 -10 0
-7 -3 -11 0
-5 -6 -4 0
-2 -6 4 0
-10 -3 -11 0
10 3 -9 0
12 11 9 0
-11 -10 -6 0
-2 -9 8 0
-5 -6 9 0
4 -5 -11 0
-2 -1 -6 0
6 10 -4 0
-5 -2 3 0
7 -10 -8 0
-2 -6 -7 0
3 -9 -6 0
-10 5 -3 0
-5 11 -3 0
2 -1 -8 0
-10 9 -2 0
10 -12 -8 0
-3 4 9 0
-1 -11 -12 0
9 -4 -12 0
-8 6 7 0
-10 -9 -2 0
-7 -4 -1 0
6 -1 2 0
-2 -1 -6 0
-2 8 -12 0
-11 -8 2 0
5 -12 -10 0
10 -6 -2 0
-9 -2 -6 0
-8 -5 -4 0
-12 -11 1 0
6 -5 -4 0
9 6 -7 0
2 5 9 0
-4 -5 -7 0
-12 -2 -3 0
-6 -4 -8 0
-5 4 -7 0
-2 -4 -1 0
12 -5 -3 0
7 -12 4 0
-9 -10 2 0
-10 -1 -6 0
-5 -6 -8 0
-8 -5 4 0
-5 -7 4 0
-10 -1 -5 0
-8 -2 10 0
-3 -5 -4 0
-4 -12 10 0
-4 -6 -1 0
5 -7 -2 0
-1 12 2 0
-8 -6 -5 0
-11 12 -8 0
9 4 -10 0
-1 4 5 0
-3 -12 7 0
-11 -10 -5 0
-11 9 -3 0
-7 -9 -8 0
9 -10 -3 0
2 -6 -9 0
-8 -3 -2 0
8 -6 -5 0
1 -11 -4 0
-1 11 6 0
-10 11 -4 0
-10 3 -1 0
3 -12 -7 0
-9 -3 10 0
